DIMACS2
40 45 292 51 22 138 246 314 94 278 113 218 243 148 248 149 307 191 302 306 179 147 73 39 222 250 197 98 212 283 213 297 103 286 76 134 257 97 1 137 192
p edge 320 748
e 0 156 2.0
e 0 91 1.0
e 1 209 42.0
e 1 170 11.0
e 1 314 16.0
e 1 278 8.0
e 1 243 38.0
e 1 22 14.0
e 1 179 13.0
e 2 221 2.0
e 2 14 1.0
e 3 156 1.0
e 3 246 27.0
e 4 225 2.0
e 4 12 2.0
e 5 100 1.0
e 5 10 1.0
e 6 104 2.0
e 6 10 2.0
e 7 243 18.0
e 7 280 1.0
e 8 48 1.0
e 8 266 1.0
e 9 290 1.0
e 9 168 2.0
e 10 309 1.0
e 10 146 1.0
e 11 279 1.0
e 11 0 1.0
e 12 265 1.0
e 12 267 1.0
e 13 114 2.0
e 13 210 2.0
e 14 237 1.0
e 14 243 30.0
e 15 295 1.0
e 15 115 1.0
e 16 302 9.0
e 16 304 2.0
e 17 111 1.0
e 17 55 1.0
e 18 58 1.0
e 18 254 1.0
e 19 177 1.0
e 19 301 1.0
e 20 139 2.0
e 20 39 37.0
e 21 308 1.0
e 21 316 1.0
e 22 45 13.0
e 22 182 17.0
e 22 179 20.0
e 23 304 2.0
e 23 136 1.0
e 24 182 1.0
e 24 48 1.0
e 25 124 1.0
e 25 284 1.0
e 26 98 31.0
e 26 246 38.0
e 27 169 1.0
e 27 290 2.0
e 28 175 6.0
e 28 134 3.0
e 29 22 25.0
e 29 178 1.0
e 30 167 2.0
e 30 133 1.0
e 31 139 1.0
e 31 174 1.0
e 32 137 19.0
e 32 51 11.0
e 33 145 1.0
e 33 182 2.0
e 34 315 1.0
e 34 202 2.0
e 35 240 1.0
e 35 182 2.0
e 36 110 2.0
e 36 65 2.0
e 37 175 2.0
e 37 121 1.0
e 38 25 1.0
e 38 297 48.0
e 39 297 15.0
e 39 304 46.0
e 39 113 9.0
e 39 1 11.0
e 39 138 16.0
e 40 130 1.0
e 40 27 2.0
e 41 63 1.0
e 41 73 36.0
e 42 162 1.0
e 42 182 1.0
e 43 243 14.0
e 43 101 3.0
e 44 264 1.0
e 44 16 1.0
e 45 92 26.0
e 45 145 17.0
e 45 73 28.0
e 45 243 29.0
e 46 1 10.0
e 46 192 15.0
e 47 113 22.0
e 47 218 37.0
e 48 254 1.0
e 48 39 13.0
e 49 84 1.0
e 49 104 1.0
e 50 272 1.0
e 50 229 1.0
e 51 113 34.0
e 51 233 48.0
e 51 137 29.0
e 51 45 36.0
e 51 243 8.0
e 51 39 13.0
e 52 177 1.0
e 52 65 1.0
e 53 39 6.0
e 53 254 1.0
e 54 172 1.0
e 54 251 5.0
e 55 265 1.0
e 55 274 1.0
e 56 140 1.0
e 56 106 1.0
e 57 22 30.0
e 57 129 2.0
e 58 192 11.0
e 58 272 1.0
e 59 70 1.0
e 59 3 1.0
e 60 141 1.0
e 60 254 1.0
e 61 193 2.0
e 61 15 1.0
e 62 66 2.0
e 62 68 1.0
e 63 143 1.0
e 63 274 1.0
e 64 316 1.0
e 64 60 1.0
e 65 288 1.0
e 65 177 1.0
e 66 114 1.0
e 66 91 2.0
e 67 65 1.0
e 67 21 1.0
e 68 272 1.0
e 68 7 1.0
e 69 314 46.0
e 69 127 1.0
e 70 293 2.0
e 70 40 1.0
e 71 121 1.0
e 71 297 47.0
e 72 167 2.0
e 72 208 1.0
e 73 84 12.0
e 73 104 44.0
e 73 51 23.0
e 73 147 16.0
e 74 83 1.0
e 74 296 1.0
e 75 205 1.0
e 75 166 3.0
e 76 243 47.0
e 76 5 11.0
e 76 22 43.0
e 76 278 46.0
e 76 246 29.0
e 76 94 12.0
e 76 134 5.0
e 76 283 3.0
e 76 197 42.0
e 77 290 1.0
e 77 19 1.0
e 78 264 2.0
e 78 198 1.0
e 79 273 4.0
e 79 180 2.0
e 80 276 1.0
e 80 242 1.0
e 81 13 5.0
e 81 192 18.0
e 82 145 1.0
e 82 148 15.0
e 83 153 1.0
e 83 70 1.0
e 84 42 1.0
e 84 202 2.0
e 85 120 1.0
e 85 267 1.0
e 86 124 3.0
e 86 159 1.0
e 87 208 1.0
e 87 310 1.0
e 88 258 1.0
e 88 138 46.0
e 89 52 1.0
e 89 200 1.0
e 90 185 1.0
e 90 35 1.0
e 91 83 1.0
e 91 199 2.0
e 92 221 1.0
e 92 84 1.0
e 93 290 1.0
e 93 51 3.0
e 94 311 10.0
e 94 294 15.0
e 94 189 17.0
e 94 246 12.0
e 94 257 46.0
e 94 134 11.0
e 94 248 33.0
e 94 250 10.0
e 95 134 19.0
e 95 216 2.0
e 96 197 42.0
e 96 55 1.0
e 97 276 26.0
e 97 193 44.0
e 97 73 30.0
e 97 257 49.0
e 97 76 2.0
e 97 191 39.0
e 97 314 20.0
e 98 87 44.0
e 98 250 37.0
e 98 147 44.0
e 98 307 35.0
e 98 103 16.0
e 99 152 2.0
e 99 288 1.0
e 100 73 28.0
e 100 149 34.0
e 101 8 1.0
e 101 225 1.0
e 102 239 1.0
e 102 269 1.0
e 103 111 6.0
e 103 87 44.0
e 103 179 29.0
e 103 246 42.0
e 103 314 3.0
e 103 191 40.0
e 103 192 49.0
e 104 180 1.0
e 104 147 14.0
e 105 32 2.0
e 105 123 1.0
e 106 105 1.0
e 106 192 8.0
e 107 258 1.0
e 107 296 1.0
e 108 85 1.0
e 108 230 1.0
e 109 245 1.0
e 109 41 1.0
e 110 175 1.0
e 110 187 1.0
e 111 115 1.0
e 111 269 1.0
e 112 24 5.0
e 112 97 12.0
e 113 289 44.0
e 113 5 24.0
e 113 257 18.0
e 113 278 13.0
e 113 94 17.0
e 113 97 7.0
e 114 192 34.0
e 114 131 1.0
e 115 0 1.0
e 115 24 1.0
e 116 37 2.0
e 116 268 2.0
e 117 87 1.0
e 117 48 1.0
e 118 30 1.0
e 118 216 1.0
e 119 127 1.0
e 119 200 1.0
e 120 223 1.0
e 120 230 2.0
e 121 196 1.0
e 121 23 1.0
e 122 159 2.0
e 122 231 1.0
e 123 109 1.0
e 123 197 28.0
e 124 251 4.0
e 124 194 1.0
e 125 67 1.0
e 125 105 1.0
e 126 2 2.0
e 126 165 1.0
e 127 87 1.0
e 127 301 1.0
e 128 97 8.0
e 128 70 1.0
e 129 146 2.0
e 129 0 1.0
e 130 309 1.0
e 130 105 2.0
e 131 20 1.0
e 131 142 1.0
e 132 139 1.0
e 132 311 5.0
e 133 208 2.0
e 133 122 1.0
e 134 55 33.0
e 134 167 39.0
e 134 278 18.0
e 134 98 42.0
e 134 137 20.0
e 135 132 1.0
e 135 260 2.0
e 136 288 1.0
e 136 146 1.0
e 137 78 25.0
e 137 314 19.0
e 137 278 25.0
e 137 103 46.0
e 137 113 18.0
e 138 105 17.0
e 138 5 13.0
e 138 292 45.0
e 138 246 48.0
e 138 248 32.0
e 138 191 46.0
e 138 302 34.0
e 139 4 1.0
e 139 110 2.0
e 140 9 3.0
e 140 257 33.0
e 141 111 1.0
e 141 147 49.0
e 142 139 2.0
e 142 258 2.0
e 143 50 2.0
e 143 219 1.0
e 144 10 1.0
e 144 169 1.0
e 145 78 1.0
e 145 23 1.0
e 146 18 2.0
e 146 306 7.0
e 147 58 10.0
e 147 139 5.0
e 147 137 15.0
e 148 37 14.0
e 148 150 37.0
e 148 191 2.0
e 148 147 25.0
e 148 134 24.0
e 148 246 23.0
e 149 27 15.0
e 149 234 22.0
e 149 257 48.0
e 149 138 39.0
e 149 148 31.0
e 150 299 1.0
e 150 241 2.0
e 151 251 2.0
e 151 93 1.0
e 152 165 1.0
e 152 61 1.0
e 153 241 2.0
e 153 44 2.0
e 154 93 1.0
e 154 313 2.0
e 155 305 1.0
e 155 168 1.0
e 156 292 44.0
e 156 127 2.0
e 157 112 4.0
e 157 181 2.0
e 158 7 1.0
e 158 77 2.0
e 159 128 1.0
e 159 179 30.0
e 160 32 2.0
e 160 241 1.0
e 161 98 16.0
e 161 205 2.0
e 162 22 45.0
e 162 14 1.0
e 163 116 1.0
e 163 142 1.0
e 164 105 1.0
e 164 306 5.0
e 165 148 37.0
e 165 156 1.0
e 166 25 1.0
e 166 303 1.0
e 167 217 1.0
e 167 227 2.0
e 168 202 1.0
e 168 111 2.0
e 169 61 1.0
e 169 207 1.0
e 170 182 1.0
e 170 27 1.0
e 171 271 1.0
e 171 179 32.0
e 172 210 1.0
e 172 250 30.0
e 173 153 1.0
e 173 218 32.0
e 174 153 1.0
e 174 74 3.0
e 175 162 1.0
e 175 204 1.0
e 176 114 1.0
e 176 159 2.0
e 177 21 1.0
e 177 49 1.0
e 178 248 32.0
e 178 100 1.0
e 179 307 17.0
e 179 73 27.0
e 179 283 49.0
e 179 149 21.0
e 180 154 2.0
e 180 291 1.0
e 181 298 1.0
e 181 121 1.0
e 182 36 2.0
e 182 225 1.0
e 183 194 1.0
e 183 190 2.0
e 184 302 10.0
e 184 73 22.0
e 185 36 1.0
e 185 109 1.0
e 186 264 1.0
e 186 221 2.0
e 187 74 2.0
e 187 218 6.0
e 188 205 1.0
e 188 141 1.0
e 189 306 39.0
e 189 239 1.0
e 190 178 2.0
e 190 121 1.0
e 191 231 39.0
e 191 123 47.0
e 191 278 49.0
e 191 212 16.0
e 192 79 25.0
e 192 154 2.0
e 193 31 2.0
e 193 25 1.0
e 194 148 12.0
e 194 20 1.0
e 195 299 1.0
e 195 312 1.0
e 196 80 1.0
e 196 200 1.0
e 197 168 43.0
e 197 47 13.0
e 197 179 16.0
e 197 213 40.0
e 197 212 46.0
e 197 278 18.0
e 198 40 1.0
e 198 310 2.0
e 199 190 1.0
e 199 296 1.0
e 200 66 2.0
e 200 58 1.0
e 201 89 1.0
e 201 117 1.0
e 202 149 46.0
e 202 193 1.0
e 203 34 1.0
e 203 40 2.0
e 204 45 48.0
e 204 149 1.0
e 205 86 2.0
e 205 156 3.0
e 206 255 1.0
e 206 173 2.0
e 207 45 43.0
e 207 307 42.0
e 208 71 2.0
e 208 164 2.0
e 209 92 2.0
e 209 172 1.0
e 210 87 1.0
e 210 171 1.0
e 211 98 16.0
e 211 133 1.0
e 212 99 26.0
e 212 111 15.0
e 212 213 31.0
e 212 218 43.0
e 212 28 32.0
e 212 292 27.0
e 213 44 27.0
e 213 22 49.0
e 213 191 8.0
e 213 257 43.0
e 213 218 13.0
e 213 283 39.0
e 214 6 1.0
e 214 34 1.0
e 215 96 1.0
e 215 44 2.0
e 216 122 1.0
e 216 158 1.0
e 217 46 1.0
e 217 152 2.0
e 218 160 28.0
e 218 283 49.0
e 218 197 36.0
e 219 234 2.0
e 219 80 2.0
e 220 43 1.0
e 220 277 1.0
e 221 278 28.0
e 221 55 1.0
e 222 39 18.0
e 222 287 17.0
e 222 212 9.0
e 222 213 39.0
e 222 218 23.0
e 222 283 29.0
e 222 246 25.0
e 222 248 6.0
e 222 250 3.0
e 223 105 1.0
e 223 282 1.0
e 224 48 2.0
e 224 88 2.0
e 225 122 1.0
e 225 37 2.0
e 226 240 2.0
e 226 273 1.0
e 227 0 1.0
e 227 317 1.0
e 228 146 2.0
e 228 307 44.0
e 229 183 1.0
e 229 293 2.0
e 230 43 2.0
e 230 273 1.0
e 231 312 2.0
e 231 16 1.0
e 232 129 1.0
e 232 59 1.0
e 233 285 2.0
e 233 316 1.0
e 234 78 2.0
e 234 186 1.0
e 235 102 1.0
e 236 172 1.0
e 236 90 1.0
e 237 116 1.0
e 237 147 2.0
e 238 294 1.0
e 238 242 1.0
e 239 130 2.0
e 239 171 2.0
e 240 168 1.0
e 240 309 1.0
e 241 213 12.0
e 241 303 1.0
e 242 51 40.0
e 242 45 14.0
e 243 72 36.0
e 243 145 7.0
e 244 123 1.0
e 244 27 1.0
e 245 165 2.0
e 245 294 1.0
e 246 20 13.0
e 246 123 19.0
e 247 255 2.0
e 247 69 2.0
e 248 214 41.0
e 248 137 17.0
e 248 250 40.0
e 249 279 1.0
e 249 207 1.0
e 250 217 9.0
e 250 243 1.0
e 250 283 47.0
e 251 164 5.0
e 251 279 1.0
e 252 104 1.0
e 252 238 1.0
e 253 255 1.0
e 253 107 1.0
e 254 101 1.0
e 254 237 1.0
e 255 125 1.0
e 255 209 1.0
e 256 223 1.0
e 256 89 1.0
e 257 88 32.0
e 257 6 17.0
e 258 45 14.0
e 259 181 1.0
e 259 130 1.0
e 260 174 1.0
e 260 21 1.0
e 261 117 1.0
e 261 235 1.0
e 262 26 1.0
e 262 268 1.0
e 263 316 1.0
e 263 290 1.0
e 264 37 1.0
e 264 81 1.0
e 265 295 2.0
e 265 191 40.0
e 266 279 1.0
e 266 33 1.0
e 267 84 1.0
e 267 142 1.0
e 268 192 16.0
e 268 75 1.0
e 269 226 1.0
e 269 272 1.0
e 270 317 2.0
e 270 248 17.0
e 271 188 2.0
e 271 118 2.0
e 272 192 7.0
e 272 16 1.0
e 273 209 1.0
e 273 232 2.0
e 274 107 1.0
e 274 108 1.0
e 275 307 31.0
e 275 122 2.0
e 276 218 23.0
e 276 145 1.0
e 277 283 28.0
e 277 149 15.0
e 278 55 25.0
e 278 116 29.0
e 279 202 1.0
e 279 144 1.0
e 280 223 1.0
e 280 195 1.0
e 281 252 2.0
e 281 288 1.0
e 282 257 31.0
e 282 159 2.0
e 283 224 32.0
e 283 280 1.0
e 284 103 42.0
e 284 308 1.0
e 285 198 2.0
e 285 102 1.0
e 286 255 32.0
e 286 212 25.0
e 286 222 10.0
e 286 248 29.0
e 286 250 27.0
e 286 306 45.0
e 286 257 25.0
e 286 283 49.0
e 286 292 27.0
e 287 96 2.0
e 287 69 1.0
e 288 245 1.0
e 288 209 1.0
e 289 125 2.0
e 289 95 1.0
e 290 244 1.0
e 290 117 1.0
e 291 129 2.0
e 291 254 1.0
e 292 237 19.0
e 292 207 37.0
e 292 297 49.0
e 292 302 26.0
e 292 306 39.0
e 293 22 23.0
e 293 131 1.0
e 294 1 31.0
e 294 89 1.0
e 295 216 2.0
e 295 178 1.0
e 296 42 1.0
e 296 193 2.0
e 297 237 21.0
e 297 141 7.0
e 297 286 31.0
e 297 302 37.0
e 297 306 4.0
e 298 183 1.0
e 298 157 1.0
e 299 21 1.0
e 299 201 1.0
e 300 92 1.0
e 300 237 1.0
e 301 310 1.0
e 301 74 1.0
e 302 296 22.0
e 302 176 11.0
e 302 306 47.0
e 302 307 20.0
e 303 69 2.0
e 303 105 2.0
e 304 281 2.0
e 304 247 1.0
e 305 248 3.0
e 305 68 1.0
e 306 128 1.0
e 306 251 33.0
e 307 260 14.0
e 307 147 38.0
e 307 292 7.0
e 308 43 1.0
e 308 318 1.0
e 309 64 1.0
e 309 136 1.0
e 310 37 1.0
e 310 12 1.0
e 311 77 5.0
e 311 9 4.0
e 312 102 1.0
e 312 252 2.0
e 313 98 35.0
e 313 250 8.0
e 314 313 3.0
e 314 129 38.0
e 314 297 35.0
e 314 302 49.0
e 315 17 1.0
e 315 126 1.0
e 316 129 1.0
e 316 128 1.0
e 317 271 1.0
e 317 231 1.0
e 318 180 1.0
e 318 203 1.0
e 319 136 1.0
e 319 7 1.0
